NAME: line_80_6
TYPE: TSP
COMMENT: line_80_6
DIMENSION: 80
EDGE_WEIGHT_TYPE: EUC_2D
NODE_COORD_SECTION
1 0.0 710.0
2 0.0 142.0
3 0.0 193.0
4 0.0 212.0
5 0.0 5.0
6 0.0 566.0
7 0.0 363.0
8 0.0 298.0
9 0.0 283.0
10 0.0 703.0
11 0.0 668.0
12 0.0 102.0
13 0.0 82.0
14 0.0 172.0
15 0.0 121.0
16 0.0 376.0
17 0.0 226.0
18 0.0 404.0
19 0.0 217.0
20 0.0 97.0
21 0.0 222.0
22 0.0 551.0
23 0.0 237.0
24 0.0 670.0
25 0.0 495.0
26 0.0 199.0
27 0.0 445.0
28 0.0 19.0
29 0.0 265.0
30 0.0 716.0
31 0.0 336.0
32 0.0 442.0
33 0.0 0.0
34 0.0 297.0
35 0.0 689.0
36 0.0 191.0
37 0.0 740.0
38 0.0 675.0
39 0.0 461.0
40 0.0 639.0
41 0.0 567.0
42 0.0 79.0
43 0.0 647.0
44 0.0 198.0
45 0.0 650.0
46 0.0 194.0
47 0.0 793.0
48 0.0 795.0
49 0.0 438.0
50 0.0 164.0
51 0.0 133.0
52 0.0 269.0
53 0.0 667.0
54 0.0 78.0
55 0.0 550.0
56 0.0 146.0
57 0.0 585.0
58 0.0 434.0
59 0.0 720.0
60 0.0 192.0
61 0.0 258.0
62 0.0 741.0
63 0.0 500.0
64 0.0 793.0
65 0.0 583.0
66 0.0 263.0
67 0.0 308.0
68 0.0 754.0
69 0.0 695.0
70 0.0 75.0
71 0.0 337.0
72 0.0 589.0
73 0.0 31.0
74 0.0 582.0
75 0.0 369.0
76 0.0 79.0
77 0.0 134.0
78 0.0 141.0
79 0.0 467.0
80 0.0 313.0
